% seed = 1447046

mint = 59;
% maxt = 231;

nActs = 42;
dur = [0,7,9,2,7,4,10,7,10,4,5,2,6,5,5,4,6,2,10,3,5,8,1,7,4,8,9,4,10,3,2,8,6,7,8,5,7,10,4,5,2,0];

nSkills = 4;
sreq = [| 0,0,0,0,
	| 0,5,4,0,
	| 0,7,0,1,
	| 0,5,2,0,
	| 0,1,0,2,
	| 0,2,0,5,
	| 4,0,5,0,
	| 0,7,7,0,
	| 5,0,5,0,
	| 0,5,3,0,
	| 0,0,3,5,
	| 0,4,6,0,
	| 0,5,0,4,
	| 4,4,0,0,
	| 3,0,4,0,
	| 2,0,3,0,
	| 0,5,0,4,
	| 0,0,4,7,
	| 3,3,0,0,
	| 0,0,5,2,
	| 0,2,7,0,
	| 0,5,0,4,
	| 7,0,0,3,
	| 0,5,7,0,
	| 0,4,4,0,
	| 4,0,0,2,
	| 2,0,5,0,
	| 4,4,0,0,
	| 0,0,1,3,
	| 4,0,7,0,
	| 5,0,0,4,
	| 4,0,0,2,
	| 1,4,0,0,
	| 0,0,3,4,
	| 0,0,6,5,
	| 1,0,4,0,
	| 0,4,0,3,
	| 0,4,4,0,
	| 7,0,1,0,
	| 0,0,3,6,
	| 0,0,4,2,
	| 0,0,0,0, |];

nResources = 25;
mastery = [| false,true,false,false,
	| true,true,false,false,
	| true,true,false,false,
	| false,true,true,true,
	| false,true,true,true,
	| false,true,false,false,
	| true,true,false,false,
	| true,true,false,true,
	| false,false,false,true,
	| true,false,false,false,
	| true,false,false,false,
	| false,true,true,true,
	| false,true,false,true,
	| false,true,false,true,
	| false,true,true,false,
	| false,true,false,false,
	| false,false,true,false,
	| true,false,false,false,
	| true,true,false,false,
	| false,true,true,false,
	| true,true,false,true,
	| false,false,true,false,
	| false,false,true,true,
	| false,true,true,false,
	| false,false,true,true, |];

nPrecs = 61;
pred = [1,1,1,2,2,3,3,3,4,4,5,5,6,6,6,7,7,7,8,8,8,9,10,11,11,12,12,13,14,14,14,15,16,17,18,19,20,21,22,23,23,24,24,25,26,27,28,29,30,31,31,32,33,34,35,36,37,38,39,40,41];
succ = [2,3,4,17,15,5,6,16,41,10,27,14,20,7,8,12,22,40,9,34,11,26,40,22,15,25,13,19,18,32,24,33,23,31,25,36,21,37,23,28,30,26,29,33,35,33,38,31,36,34,32,37,40,37,39,41,39,39,42,42,42];

nUnrels = 551;
unpred = [2,2,2,2,2,2,2,2,2,2,2,2,2,2,2,2,2,2,2,2,2,2,2,2,2,2,2,2,2,2,3,3,3,4,4,4,4,4,4,4,4,4,4,4,4,4,4,4,4,4,4,4,4,4,4,4,4,4,4,4,4,4,4,4,4,4,4,5,5,5,5,5,5,5,5,5,5,5,5,5,5,5,5,5,5,5,5,5,6,6,6,6,6,6,6,6,6,6,7,7,7,7,7,7,7,7,7,7,7,7,7,7,7,7,7,7,7,7,8,8,8,8,8,8,8,8,8,8,8,8,8,8,8,8,9,9,9,9,9,9,9,9,9,9,9,9,9,9,9,9,9,9,9,9,9,9,9,9,9,9,9,9,9,10,10,10,10,10,10,10,10,10,10,10,10,10,10,10,10,10,10,10,10,10,10,10,10,10,10,10,10,10,10,11,11,11,11,11,11,11,11,11,11,11,11,11,11,11,11,11,11,11,12,12,12,12,12,12,12,12,12,12,12,12,12,12,12,12,12,12,12,12,12,12,13,13,13,13,13,13,13,13,13,13,13,13,13,13,13,13,13,13,13,13,13,13,13,13,13,14,14,14,14,14,14,14,14,14,14,14,14,14,14,15,15,15,15,15,15,15,15,15,15,15,15,15,15,15,15,15,15,15,15,15,15,15,15,16,16,16,16,16,16,16,16,16,16,16,16,16,16,16,16,16,16,17,17,17,17,17,17,17,17,17,17,17,17,17,17,17,17,17,17,17,18,18,18,18,18,18,18,18,18,18,18,18,18,18,18,18,18,18,18,18,19,19,19,19,19,19,19,19,19,19,19,19,19,19,19,19,19,19,19,19,20,20,20,20,20,20,20,20,20,20,20,20,20,20,20,20,20,20,21,21,21,21,21,21,21,21,21,21,21,21,21,21,21,21,21,21,22,22,22,22,22,22,22,22,22,22,22,22,23,23,23,23,23,23,23,23,23,23,23,23,24,24,24,24,24,24,24,24,24,25,25,25,25,25,25,25,25,25,25,25,25,25,25,26,26,26,26,26,26,26,26,26,26,26,26,26,27,27,27,27,27,27,27,27,27,27,27,27,28,28,28,28,28,28,28,28,28,28,28,29,29,29,29,29,29,29,30,30,30,30,30,30,30,30,30,31,31,31,31,31,31,32,32,32,32,32,32,32,33,33,33,33,33,33,33,34,34,34,34,34,35,35,35,35,35,36,36,36,36,37,37,37,38,38,39,39,40];
unsucc = [3,4,5,6,7,8,9,10,11,12,13,14,16,18,19,20,21,22,23,24,25,26,27,28,29,30,35,36,38,41,4,10,17,5,6,7,8,9,11,12,13,14,15,16,17,18,19,20,21,22,23,24,25,26,27,28,29,30,31,32,33,34,35,36,37,38,39,6,7,8,9,10,11,12,13,15,16,17,19,20,21,22,23,28,30,36,38,41,10,14,16,17,18,24,27,29,31,32,8,9,10,11,14,15,16,17,18,20,21,24,26,27,29,31,32,34,35,37,10,12,13,14,16,17,18,19,20,21,24,25,27,29,31,32,10,11,12,13,14,15,16,17,18,19,20,21,22,23,24,25,27,28,29,30,31,32,33,34,36,37,38,40,41,11,12,13,14,15,16,17,18,19,20,21,22,23,24,25,26,27,28,29,30,31,32,33,34,35,36,37,38,39,41,12,13,14,16,17,18,19,20,21,24,25,26,27,29,31,32,34,35,37,14,15,16,17,18,20,21,22,23,24,26,27,28,29,30,31,32,34,35,37,38,39,14,15,16,17,18,20,21,22,23,24,25,26,27,28,29,30,31,32,33,34,35,37,38,39,40,15,16,17,19,20,21,22,23,27,28,30,36,38,41,16,17,18,19,20,21,22,23,24,25,26,27,28,29,30,31,32,34,35,36,37,38,39,41,17,18,19,20,21,22,24,25,26,27,29,31,32,33,34,35,37,40,18,19,20,21,22,23,24,25,26,27,28,29,30,33,35,36,38,40,41,19,20,21,22,23,24,26,27,28,29,30,31,32,34,35,36,37,38,39,41,20,21,22,23,24,25,26,27,28,29,30,31,32,33,34,35,37,38,39,40,22,23,24,25,26,27,28,29,30,31,32,33,34,35,36,38,40,41,22,23,24,25,26,27,28,29,30,31,32,33,34,35,36,38,40,41,24,25,26,27,29,31,32,33,34,35,37,40,24,25,26,27,29,31,32,33,34,35,37,40,25,27,28,30,33,36,38,40,41,26,27,28,29,30,31,32,34,35,36,37,38,39,41,27,28,29,30,31,32,33,34,36,37,38,40,41,28,29,30,31,32,34,35,36,37,38,39,41,29,30,31,32,33,34,35,36,37,40,41,30,33,35,36,38,40,41,31,32,33,34,35,37,38,39,40,33,35,36,38,40,41,33,34,35,36,38,40,41,34,35,36,37,38,39,41,35,36,38,40,41,36,37,38,40,41,37,38,39,40,38,40,41,40,41,40,41,41];

USEFUL_RES = [{},
	{1,2,3,4,5,6,7,8,12,13,14,15,16,17,19,20,21,22,23,24,25},
	{1,2,3,4,5,6,7,8,9,12,13,14,15,16,19,20,21,23,24,25},
	{1,2,3,4,5,6,7,8,12,13,14,15,16,17,19,20,21,22,23,24,25},
	{1,2,3,4,5,6,7,8,9,12,13,14,15,16,19,20,21,23,24,25},
	{1,2,3,4,5,6,7,8,9,12,13,14,15,16,19,20,21,23,24,25},
	{2,3,4,5,7,8,10,11,12,15,17,18,19,20,21,22,23,24,25},
	{1,2,3,4,5,6,7,8,12,13,14,15,16,17,19,20,21,22,23,24,25},
	{2,3,4,5,7,8,10,11,12,15,17,18,19,20,21,22,23,24,25},
	{1,2,3,4,5,6,7,8,12,13,14,15,16,17,19,20,21,22,23,24,25},
	{4,5,8,9,12,13,14,15,17,20,21,22,23,24,25},
	{1,2,3,4,5,6,7,8,12,13,14,15,16,17,19,20,21,22,23,24,25},
	{1,2,3,4,5,6,7,8,9,12,13,14,15,16,19,20,21,23,24,25},
	{1,2,3,4,5,6,7,8,10,11,12,13,14,15,16,18,19,20,21,24},
	{2,3,4,5,7,8,10,11,12,15,17,18,19,20,21,22,23,24,25},
	{2,3,4,5,7,8,10,11,12,15,17,18,19,20,21,22,23,24,25},
	{1,2,3,4,5,6,7,8,9,12,13,14,15,16,19,20,21,23,24,25},
	{4,5,8,9,12,13,14,15,17,20,21,22,23,24,25},
	{1,2,3,4,5,6,7,8,10,11,12,13,14,15,16,18,19,20,21,24},
	{4,5,8,9,12,13,14,15,17,20,21,22,23,24,25},
	{1,2,3,4,5,6,7,8,12,13,14,15,16,17,19,20,21,22,23,24,25},
	{1,2,3,4,5,6,7,8,9,12,13,14,15,16,19,20,21,23,24,25},
	{2,3,4,5,7,8,9,10,11,12,13,14,18,19,21,23,25},
	{1,2,3,4,5,6,7,8,12,13,14,15,16,17,19,20,21,22,23,24,25},
	{1,2,3,4,5,6,7,8,12,13,14,15,16,17,19,20,21,22,23,24,25},
	{2,3,4,5,7,8,9,10,11,12,13,14,18,19,21,23,25},
	{2,3,4,5,7,8,10,11,12,15,17,18,19,20,21,22,23,24,25},
	{1,2,3,4,5,6,7,8,10,11,12,13,14,15,16,18,19,20,21,24},
	{4,5,8,9,12,13,14,15,17,20,21,22,23,24,25},
	{2,3,4,5,7,8,10,11,12,15,17,18,19,20,21,22,23,24,25},
	{2,3,4,5,7,8,9,10,11,12,13,14,18,19,21,23,25},
	{2,3,4,5,7,8,9,10,11,12,13,14,18,19,21,23,25},
	{1,2,3,4,5,6,7,8,10,11,12,13,14,15,16,18,19,20,21,24},
	{4,5,8,9,12,13,14,15,17,20,21,22,23,24,25},
	{4,5,8,9,12,13,14,15,17,20,21,22,23,24,25},
	{2,3,4,5,7,8,10,11,12,15,17,18,19,20,21,22,23,24,25},
	{1,2,3,4,5,6,7,8,9,12,13,14,15,16,19,20,21,23,24,25},
	{1,2,3,4,5,6,7,8,12,13,14,15,16,17,19,20,21,22,23,24,25},
	{2,3,4,5,7,8,10,11,12,15,17,18,19,20,21,22,23,24,25},
	{4,5,8,9,12,13,14,15,17,20,21,22,23,24,25},
	{4,5,8,9,12,13,14,15,17,20,21,22,23,24,25},
	{}];

POTENTIAL_ACT = [{2,3,4,5,6,8,10,12,13,14,17,19,21,22,24,25,28,33,37,38},
	{2,3,4,5,6,7,8,9,10,12,13,14,15,16,17,19,21,22,23,24,25,26,27,28,30,31,32,33,36,37,38,39},
	{2,3,4,5,6,7,8,9,10,12,13,14,15,16,17,19,21,22,23,24,25,26,27,28,30,31,32,33,36,37,38,39},
	{2,3,4,5,6,7,8,9,10,11,12,13,14,15,16,17,18,19,20,21,22,23,24,25,26,27,28,29,30,31,32,33,34,35,36,37,38,39,40,41},
	{2,3,4,5,6,7,8,9,10,11,12,13,14,15,16,17,18,19,20,21,22,23,24,25,26,27,28,29,30,31,32,33,34,35,36,37,38,39,40,41},
	{2,3,4,5,6,8,10,12,13,14,17,19,21,22,24,25,28,33,37,38},
	{2,3,4,5,6,7,8,9,10,12,13,14,15,16,17,19,21,22,23,24,25,26,27,28,30,31,32,33,36,37,38,39},
	{2,3,4,5,6,7,8,9,10,11,12,13,14,15,16,17,18,19,20,21,22,23,24,25,26,27,28,29,30,31,32,33,34,35,36,37,38,39,40,41},
	{3,5,6,11,13,17,18,20,22,23,26,29,31,32,34,35,37,40,41},
	{7,9,14,15,16,19,23,26,27,28,30,31,32,33,36,39},
	{7,9,14,15,16,19,23,26,27,28,30,31,32,33,36,39},
	{2,3,4,5,6,7,8,9,10,11,12,13,14,15,16,17,18,19,20,21,22,23,24,25,26,27,28,29,30,31,32,33,34,35,36,37,38,39,40,41},
	{2,3,4,5,6,8,10,11,12,13,14,17,18,19,20,21,22,23,24,25,26,28,29,31,32,33,34,35,37,38,40,41},
	{2,3,4,5,6,8,10,11,12,13,14,17,18,19,20,21,22,23,24,25,26,28,29,31,32,33,34,35,37,38,40,41},
	{2,3,4,5,6,7,8,9,10,11,12,13,14,15,16,17,18,19,20,21,22,24,25,27,28,29,30,33,34,35,36,37,38,39,40,41},
	{2,3,4,5,6,8,10,12,13,14,17,19,21,22,24,25,28,33,37,38},
	{2,4,7,8,9,10,11,12,15,16,18,20,21,24,25,27,29,30,34,35,36,38,39,40,41},
	{7,9,14,15,16,19,23,26,27,28,30,31,32,33,36,39},
	{2,3,4,5,6,7,8,9,10,12,13,14,15,16,17,19,21,22,23,24,25,26,27,28,30,31,32,33,36,37,38,39},
	{2,3,4,5,6,7,8,9,10,11,12,13,14,15,16,17,18,19,20,21,22,24,25,27,28,29,30,33,34,35,36,37,38,39,40,41},
	{2,3,4,5,6,7,8,9,10,11,12,13,14,15,16,17,18,19,20,21,22,23,24,25,26,27,28,29,30,31,32,33,34,35,36,37,38,39,40,41},
	{2,4,7,8,9,10,11,12,15,16,18,20,21,24,25,27,29,30,34,35,36,38,39,40,41},
	{2,3,4,5,6,7,8,9,10,11,12,13,15,16,17,18,20,21,22,23,24,25,26,27,29,30,31,32,34,35,36,37,38,39,40,41},
	{2,3,4,5,6,7,8,9,10,11,12,13,14,15,16,17,18,19,20,21,22,24,25,27,28,29,30,33,34,35,36,37,38,39,40,41},
	{2,3,4,5,6,7,8,9,10,11,12,13,15,16,17,18,20,21,22,23,24,25,26,27,29,30,31,32,34,35,36,37,38,39,40,41}];
